
Gurobi 9.5.0 (linux64) logging started Mon Dec  4 12:11:59 2023

Set parameter LogFile to value "/lustre1/scratch/348/vsc34888/JointResearch/05.Models/06.Benchmarking/E.Representative_days_based_on_Line_Benefits_OptModel/RTS24_mod1_ByStages_nc300/openStarNet_RTS24_mod1_ByStages_nc300.log"
Set parameter Method to value 2
Set parameter MIPFocus to value 1
Set parameter Presolve to value 2
Set parameter RINS to value 100
Set parameter MIPGap to value 0.01
Set parameter Threads to value 36
Set parameter TimeLimit to value 259200
Set parameter IterationLimit to value 760000000
Gurobi Optimizer version 9.5.0 build v9.5.0rc5 (linux64)
Thread count: 36 physical cores, 36 logical processors, using up to 36 threads
Optimize a model with 106858 rows, 72187 columns and 291481 nonzeros
Model fingerprint: 0xf6efa943
Variable types: 72166 continuous, 21 integer (21 binary)
Coefficient statistics:
  Matrix range     [1e-03, 1e+03]
  Objective range  [1e+00, 1e+00]
  Bounds range     [3e-05, 3e+00]
  RHS range        [3e-05, 3e+00]
Presolve removed 63598 rows and 36581 columns
Presolve time: 0.42s
Presolved: 43260 rows, 35606 columns, 156191 nonzeros
Variable types: 35585 continuous, 21 integer (21 binary)
Root relaxation presolved: 43260 rows, 35606 columns, 156191 nonzeros

Root barrier log...

Ordering time: 0.01s

Barrier statistics:
 Dense cols : 21
 AA' NZ     : 2.900e+05
 Factor NZ  : 8.453e+05 (roughly 40 MB of memory)
 Factor Ops : 1.936e+07 (less than 1 second per iteration)
 Threads    : 35

                  Objective                Residual
Iter       Primal          Dual         Primal    Dual     Compl     Time
   0   6.55340200e+05 -3.46286181e+08  5.27e+00 1.27e+02  9.63e+03     1s
   1   1.04395098e+05 -8.93803498e+07  6.91e-01 5.01e-08  1.34e+03     1s
   2   4.41594468e+04 -4.19107611e+07  1.89e-01 2.07e-08  4.91e+02     1s
   3   2.27432643e+04 -5.15622090e+06  7.02e-03 2.44e-09  5.20e+01     1s
   4   1.83263016e+04 -6.37122172e+05  8.39e-05 2.74e-10  6.50e+00     1s
   5   8.67140779e+03 -1.65750576e+05  5.46e-06 6.95e-11  1.73e+00     1s
   6   3.11813500e+03 -3.67280484e+04  9.62e-07 1.43e-11  3.95e-01     1s
   7   1.13017714e+03 -1.11937795e+04  2.15e-07 4.11e-12  1.22e-01     1s
   8   4.08706060e+02 -2.47030400e+03  1.77e-08 9.09e-13  2.86e-02     1s
   9   2.71889524e+02 -9.29679581e+02  7.92e-09 9.09e-13  1.19e-02     1s
  10   1.54944331e+02 -2.84416974e+02  2.52e-09 4.55e-13  4.36e-03     1s
  11   1.02681823e+02 -6.44332416e+01  8.43e-10 4.55e-13  1.66e-03     1s
  12   8.21562332e+01 -3.40211411e+00  4.16e-10 4.55e-13  8.49e-04     1s
  13   7.49751314e+01  1.91771234e+01  2.83e-10 9.09e-13  5.53e-04     1s
  14   7.27286751e+01  3.09753057e+01  2.42e-10 4.55e-13  4.14e-04     1s
  15   6.78827981e+01  3.99443246e+01  1.57e-10 9.09e-13  2.77e-04     1s
  16   6.49706377e+01  4.58810099e+01  1.05e-10 9.09e-13  1.89e-04     1s
  17   6.27678246e+01  5.28678355e+01  6.39e-11 9.09e-13  9.82e-05     1s
  18   6.18103351e+01  5.54778194e+01  4.69e-11 4.55e-13  6.28e-05     1s
  19   6.10345673e+01  5.65320571e+01  3.31e-11 4.55e-13  4.47e-05     1s
  20   6.08557995e+01  5.69040104e+01  2.93e-11 4.55e-13  3.92e-05     1s
  21   6.03946740e+01  5.72603751e+01  1.99e-11 9.09e-13  3.11e-05     1s
  22   6.00444328e+01  5.75880792e+01  1.50e-11 4.55e-13  2.44e-05     1s
  23   5.97826795e+01  5.79660066e+01  1.43e-11 4.55e-13  1.80e-05     1s
  24   5.96987152e+01  5.83846594e+01  1.34e-11 9.09e-13  1.30e-05     1s
  25   5.95809761e+01  5.85973640e+01  2.40e-11 9.09e-13  9.76e-06     1s
  26   5.95336414e+01  5.88661583e+01  2.21e-11 9.09e-13  6.62e-06     1s
  27   5.94987114e+01  5.89455398e+01  1.26e-11 1.82e-12  5.49e-06     1s
  28   5.94577603e+01  5.90205279e+01  1.42e-11 4.55e-13  4.34e-06     1s
  29   5.94310666e+01  5.91823957e+01  1.51e-11 4.55e-13  2.47e-06     1s
  30   5.93933724e+01  5.92215275e+01  4.31e-11 4.55e-13  1.70e-06     1s
  31   5.93627054e+01  5.92431175e+01  4.71e-11 4.55e-13  1.19e-06     1s
  32   5.93534034e+01  5.92887263e+01  6.09e-11 4.55e-13  6.42e-07     1s
  33   5.93504535e+01  5.93127761e+01  6.55e-11 4.55e-13  3.74e-07     1s
  34   5.93453338e+01  5.93347384e+01  7.69e-10 5.09e-13  1.05e-07     1s
  35   5.93436392e+01  5.93403790e+01  7.88e-10 9.09e-13  3.23e-08     1s
  36   5.93430604e+01  5.93417557e+01  4.40e-10 1.12e-12  1.29e-08     1s
  37   5.93429033e+01  5.93423118e+01  3.84e-10 1.65e-12  5.87e-09     1s
  38   5.93428192e+01  5.93425775e+01  3.85e-10 2.87e-12  2.40e-09     1s
  39   5.93426925e+01  5.93426114e+01  6.07e-10 2.06e-12  8.05e-10     1s
  40   5.93426909e+01  5.93426415e+01  4.21e-10 6.09e-12  4.90e-10     1s
  41   5.93426877e+01  5.93426426e+01  6.98e-10 5.94e-12  4.47e-10     1s
  42   5.93426858e+01  5.93426488e+01  9.30e-10 5.08e-12  3.67e-10     1s
  43   5.93426856e+01  5.93426659e+01  9.61e-10 2.74e-12  1.95e-10     2s
  44   5.93426851e+01  5.93426828e+01  1.31e-09 8.42e-12  2.27e-11     2s
  45   5.93426850e+01  5.93426849e+01  1.05e-09 9.09e-13  6.02e-13     2s

Barrier solved model in 45 iterations and 1.55 seconds (1.39 work units)
Optimal objective 5.93426850e+01


Root relaxation: objective 5.934268e+01, 6510 iterations, 1.35 seconds (1.14 work units)

    Nodes    |    Current Node    |     Objective Bounds      |     Work
 Expl Unexpl |  Obj  Depth IntInf | Incumbent    BestBd   Gap | It/Node Time

     0     0   59.34268    0   17          -   59.34268      -     -    3s
H    0     0                     111.5459801   59.34268  46.8%     -    3s
H    0     0                     101.6421950   60.12254  40.8%     -    7s
     0     0   60.12254    0   13  101.64220   60.12254  40.8%     -    8s
     0     0   60.16256    0   11  101.64220   60.16256  40.8%     -    9s
H    0     0                      98.8155716   60.16256  39.1%     -   10s
     0     0   60.57388    0   17   98.81557   60.57388  38.7%     -   11s
H    0     0                      87.9612646   60.57388  31.1%     -   11s
     0     0   60.72898    0   16   87.96126   60.72898  31.0%     -   12s
     0     0   60.73483    0   15   87.96126   60.73483  31.0%     -   12s
     0     0   60.73509    0   16   87.96126   60.73509  31.0%     -   13s
     0     0   61.16178    0   15   87.96126   61.16178  30.5%     -   14s
     0     0   61.17468    0   11   87.96126   61.17468  30.5%     -   16s
     0     0   61.17897    0   13   87.96126   61.17897  30.4%     -   16s
     0     0   61.17897    0   13   87.96126   61.17897  30.4%     -   16s
     0     0   61.25020    0   14   87.96126   61.25020  30.4%     -   17s
     0     0   61.25166    0   10   87.96126   61.25166  30.4%     -   18s
     0     0   61.25166    0   10   87.96126   61.25166  30.4%     -   18s
H    0     0                      85.7033455   61.25166  28.5%     -   20s
     0     0   61.28045    0   10   85.70335   61.28045  28.5%     -   21s
H    0     0                      85.4235327   61.28045  28.3%     -   45s
     0     2   61.28045    0   10   85.42353   61.28045  28.3%     -   47s
H    6     8                      85.1400874   62.02043  27.2%  3305   49s
     7    16   62.28446    3   17   85.14009   62.02216  27.2%  3798   51s
H   30    32                      81.0610401   62.51238  22.9%  2730   53s
    31    64   62.64807    5   15   81.06104   62.51442  22.9%  2773   56s
    63    96   65.40464    6   15   81.06104   62.70367  22.6%  2774   65s
H   99   127                      80.1590409   64.22131  19.9%  2506   85s
H  129   127                      79.7442345   64.30664  19.4%  2380   85s
   135   153   70.31689    8   13   79.74423   64.30664  19.4%  2377  133s
H  137   153                      79.7122793   64.30664  19.3%  2363  133s
   171   171   74.50785    9   12   79.71228   65.13836  18.3%  2213  135s
   261   206   78.41294   10   11   79.71228   65.41341  17.9%  1906  158s
   306   221     cutoff   10        79.71228   65.41341  17.9%  1791  161s
   427   256   75.73928   11   10   79.71228   65.41341  17.9%  1643  166s
   568   306     cutoff   13        79.71228   65.41341  17.9%  1532  171s
   730   306   71.74010   11    8   79.71228   66.41121  16.7%  1435  177s
   901   343   77.72739   15    6   79.71228   66.41121  16.7%  1366  182s
  1118   385   72.69109    9   12   79.71228   66.42368  16.7%  1278  187s
  1230   379   76.86835   11   10   79.71228   66.42368  16.7%  1244  210s
  1296   381   79.32918   12    9   79.71228   66.42368  16.7%  1236  409s
  1429   378     cutoff   11        79.71228   68.60701  13.9%  1195  412s
  1608   389   72.07408   10   11   79.71228   68.67568  13.8%  1154  416s
  1978   389   77.90730   15    6   79.71228   68.81804  13.7%  1078  423s
  2180   387   73.05989   10   11   79.71228   68.81804  13.7%  1045  426s
  2399   405   77.10339   12    9   79.71228   68.81804  13.7%  1012  626s
  2523   393   78.77165   14    7   79.71228   68.81804  13.7%  1006  646s
  2670   384     cutoff   15        79.71228   70.34384  11.8%   985  650s
  2973   371   76.19211    9   12   79.71228   70.70560  11.3%   948  655s
  3294   333     cutoff   10        79.71228   72.32509  9.27%   916  830s
  3577   339   76.76747   10   11   79.71228   72.32509  9.27%   892  845s
  3661   247   78.84935   11   10   79.71228   72.32509  9.27%   886  850s
  4101   103   77.84848   11   10   79.71228   72.32509  9.27%   850  856s

Cutting planes:
  Gomory: 5
  Implied bound: 196
  MIR: 1272
  Relax-and-lift: 196

Explored 4724 nodes (3821710 simplex iterations) in 859.53 seconds (1336.06 work units)
Thread count was 36 (of 36 available processors)

Solution count 10: 79.7123 79.7442 80.159 ... 101.642

Optimal solution found (tolerance 1.00e-02)
Best objective 7.971227930599e+01, best bound 7.971227930599e+01, gap 0.0000%

Gurobi 9.5.0 (linux64) logging started Mon Dec  4 12:26:56 2023

Set parameter LogFile to value "/lustre1/scratch/348/vsc34888/JointResearch/05.Models/06.Benchmarking/E.Representative_days_based_on_Line_Benefits_OptModel/RTS24_mod1_ByStages_nc300/openStarNet_RTS24_mod1_ByStages_nc300.log"
Set parameter Method to value 2
Set parameter MIPFocus to value 1
Set parameter Presolve to value 2
Set parameter RINS to value 100
Set parameter MIPGap to value 0.01
Set parameter Threads to value 36
Set parameter TimeLimit to value 259200
Set parameter IterationLimit to value 760000000
No parameters matching 'relax_integrality' found
Gurobi Optimizer version 9.5.0 build v9.5.0rc5 (linux64)
Thread count: 36 physical cores, 36 logical processors, using up to 36 threads
Optimize a model with 106858 rows, 72166 columns and 266176 nonzeros
Model fingerprint: 0x662a5505
Coefficient statistics:
  Matrix range     [1e-03, 1e+03]
  Objective range  [1e+00, 1e+00]
  Bounds range     [3e-05, 3e+00]
  RHS range        [3e-05, 2e+01]
Presolve removed 88856 rows and 40280 columns
Presolve time: 0.13s
Presolved: 18002 rows, 32402 columns, 76575 nonzeros

Ordering time: 0.00s

Barrier statistics:
 AA' NZ     : 3.998e+04
 Factor NZ  : 1.464e+05 (roughly 17 MB of memory)
 Factor Ops : 1.799e+06 (less than 1 second per iteration)
 Threads    : 36

                  Objective                Residual
Iter       Primal          Dual         Primal    Dual     Compl     Time
   0   2.07778685e+06 -6.47056401e+07  2.79e+01 9.34e+01  1.21e+04     0s
   1   1.46583524e+05 -4.09394533e+07  1.63e+00 1.91e-12  1.29e+03     0s
   2   4.64106409e+04 -9.64232562e+06  3.35e-01 2.08e-12  2.39e+02     0s
   3   2.34262534e+04 -1.31293457e+06  1.37e-02 1.42e-12  2.55e+01     0s
   4   1.70003860e+04 -2.60079605e+05  2.94e-04 1.59e-12  5.09e+00     0s
   5   7.43322775e+03 -5.26433139e+04  1.98e-06 6.17e-13  1.10e+00     0s
   6   2.16544600e+03 -1.29936674e+04  3.10e-07 4.64e-13  2.78e-01     0s
   7   6.90302000e+02 -3.20017456e+03  3.78e-08 2.27e-13  7.14e-02     0s
   8   4.18378038e+02 -1.43574843e+03  1.10e-08 2.27e-13  3.40e-02     0s
   9   2.35449151e+02 -3.69735585e+02  2.55e-09 2.27e-13  1.11e-02     0s
  10   1.64784740e+02 -1.27558006e+02  1.26e-09 4.55e-13  5.36e-03     0s
  11   1.18187305e+02  2.75747248e+01  4.94e-10 4.55e-13  1.66e-03     0s
  12   8.81862535e+01  7.04352714e+01  8.52e-11 4.55e-13  3.26e-04     0s
  13   8.29013050e+01  7.67340976e+01  3.04e-11 2.27e-13  1.13e-04     0s
  14   8.10723410e+01  7.84668376e+01  1.28e-11 2.27e-13  4.78e-05     0s
  15   8.02011577e+01  7.92485835e+01  5.08e-12 4.55e-13  1.75e-05     0s
  16   7.98517526e+01  7.95717079e+01  1.80e-11 4.55e-13  5.14e-06     0s
  17   7.97402128e+01  7.96696903e+01  1.57e-11 2.27e-13  1.29e-06     0s
  18   7.97135325e+01  7.97064111e+01  3.15e-11 4.55e-13  1.31e-07     0s
  19   7.97123561e+01  7.97118589e+01  2.81e-11 2.27e-13  9.12e-09     0s
  20   7.97122808e+01  7.97122765e+01  1.35e-11 4.55e-13  7.82e-11     0s
  21   7.97122793e+01  7.97122793e+01  3.55e-12 4.55e-13  1.25e-16     0s

Barrier solved model in 21 iterations and 0.37 seconds (0.33 work units)
Optimal objective 7.97122793e+01

Crossover log...

    3812 DPushes remaining with DInf 0.0000000e+00                 0s
       0 DPushes remaining with DInf 0.0000000e+00                 0s

     824 PPushes remaining with PInf 0.0000000e+00                 0s
       0 PPushes remaining with PInf 0.0000000e+00                 0s

  Push phase complete: Pinf 0.0000000e+00, Dinf 1.6569485e-13      0s

Iteration    Objective       Primal Inf.    Dual Inf.      Time
     861    7.9712279e+01   0.000000e+00   0.000000e+00      0s

Use crossover to convert LP symmetric solution to basic solution...
Crossover log...

       0 DPushes remaining with DInf 0.0000000e+00                 0s

     594 PPushes remaining with PInf 0.0000000e+00                 0s
       0 PPushes remaining with PInf 0.0000000e+00                 0s

  Push phase complete: Pinf 0.0000000e+00, Dinf 1.5399513e-13      0s

Iteration    Objective       Primal Inf.    Dual Inf.      Time
    1476    7.9712279e+01   0.000000e+00   0.000000e+00      1s

Solved in 1476 iterations and 0.56 seconds (0.43 work units)
Optimal objective  7.971227931e+01

Gurobi 9.5.0 (linux64) logging started Fri Dec  8 15:26:12 2023

Set parameter LogFile to value "/lustre1/scratch/348/vsc34888/JointResearch/05.Models/06.Benchmarking/E.Representative_days_based_on_Line_Benefits_OptModel/RTS24_mod1_ByStages_nc300/openStarNet_RTS24_mod1_ByStages_nc300.log"
Set parameter Method to value 2
Set parameter MIPFocus to value 1
Set parameter Presolve to value 2
Set parameter RINS to value 100
Set parameter MIPGap to value 0.01
Set parameter Threads to value 36
Set parameter TimeLimit to value 259200
Set parameter IterationLimit to value 760000000
Gurobi Optimizer version 9.5.0 build v9.5.0rc5 (linux64)
Thread count: 36 physical cores, 36 logical processors, using up to 36 threads
Optimize a model with 106858 rows, 72164 columns and 291415 nonzeros
Model fingerprint: 0x46138dd3
Variable types: 72143 continuous, 21 integer (21 binary)
Coefficient statistics:
  Matrix range     [1e-03, 3e+02]
  Objective range  [1e+00, 1e+00]
  Bounds range     [3e-05, 3e+00]
  RHS range        [3e-05, 3e+00]
Presolve removed 63632 rows and 36582 columns
Presolve time: 0.41s
Presolved: 43226 rows, 35582 columns, 156135 nonzeros
Variable types: 35561 continuous, 21 integer (21 binary)
Root relaxation presolved: 43226 rows, 35582 columns, 156135 nonzeros

Root barrier log...

Ordering time: 0.01s

Barrier statistics:
 Dense cols : 21
 AA' NZ     : 2.899e+05
 Factor NZ  : 8.446e+05 (roughly 40 MB of memory)
 Factor Ops : 1.935e+07 (less than 1 second per iteration)
 Threads    : 35

                  Objective                Residual
Iter       Primal          Dual         Primal    Dual     Compl     Time
   0   6.76661958e+05 -8.34528966e+07  5.37e+00 6.03e+01  2.35e+03     1s
   1   1.07844320e+05 -2.17538448e+07  7.22e-01 4.71e-09  3.30e+02     1s
   2   4.37433211e+04 -9.73949948e+06  1.94e-01 1.67e-09  1.15e+02     1s
   3   2.10162809e+04 -1.10423382e+06  8.31e-03 7.43e-10  1.14e+01     1s
   4   1.17748979e+04 -1.46806408e+05  4.82e-04 8.60e-11  1.58e+00     1s
   5   3.36987536e+03 -2.89532805e+04  9.00e-05 1.51e-11  3.21e-01     1s
   6   8.11887652e+02 -6.88664341e+03  1.06e-05 3.45e-12  7.64e-02     1s
   7   3.91282887e+02 -1.90378076e+03  1.63e-06 9.49e-13  2.28e-02     1s
   8   2.16564786e+02 -6.61683925e+02  5.18e-07 3.26e-13  8.72e-03     1s
   9   1.48189294e+02 -2.34454785e+02  2.60e-07 4.55e-13  3.80e-03     1s
  10   9.69401560e+01 -7.11387679e+01  1.07e-07 4.55e-13  1.67e-03     1s
  11   7.39624726e+01  2.20315720e+01  5.14e-08 4.55e-13  5.15e-04     1s
  12   6.59552553e+01  3.37846388e+01  3.41e-08 2.27e-13  3.19e-04     1s
  13   6.12559795e+01  3.76000850e+01  2.34e-08 4.55e-13  2.35e-04     1s
  14   5.87090907e+01  4.17908734e+01  1.74e-08 2.27e-13  1.68e-04     1s
  15   5.75075098e+01  4.44902981e+01  1.48e-08 2.27e-13  1.29e-04     1s
  16   5.71119605e+01  4.61293460e+01  1.39e-08 2.27e-13  1.09e-04     1s
  17   5.55587889e+01  4.73866934e+01  1.04e-08 2.27e-13  8.11e-05     1s
  18   5.37336033e+01  4.87961216e+01  6.10e-09 2.27e-13  4.90e-05     1s
  19   5.33580214e+01  4.89172008e+01  5.35e-09 4.55e-13  4.41e-05     1s
  20   5.27724904e+01  4.93295984e+01  4.04e-09 2.27e-13  3.42e-05     1s
  21   5.24489167e+01  4.96922160e+01  3.34e-09 2.27e-13  2.74e-05     1s
  22   5.20137964e+01  4.99939350e+01  2.27e-09 4.55e-13  2.00e-05     1s
  23   5.18656405e+01  5.03203983e+01  1.87e-09 4.55e-13  1.53e-05     1s
  24   5.14302890e+01  5.05167453e+01  8.69e-10 2.27e-13  9.07e-06     1s
  25   5.13026257e+01  5.07402402e+01  5.16e-10 2.27e-13  5.58e-06     1s
  26   5.12584310e+01  5.08173950e+01  4.03e-10 2.27e-13  4.38e-06     1s
  27   5.12319444e+01  5.08914709e+01  3.27e-10 4.55e-13  3.38e-06     1s
  28   5.11979125e+01  5.09558102e+01  2.34e-10 2.27e-13  2.40e-06     1s
  29   5.11764313e+01  5.09713144e+01  1.77e-10 2.27e-13  2.04e-06     1s
  30   5.11674093e+01  5.10425187e+01  1.61e-10 2.27e-13  1.24e-06     1s
  31   5.11386166e+01  5.10706692e+01  3.13e-10 2.27e-13  6.74e-07     1s
  32   5.11166198e+01  5.11062844e+01  1.05e-09 4.55e-13  1.03e-07     1s
  33   5.11134664e+01  5.11080275e+01  7.76e-10 2.27e-13  5.40e-08     1s
  34   5.11123225e+01  5.11102148e+01  6.82e-10 4.55e-13  2.09e-08     1s
  35   5.11119957e+01  5.11111152e+01  8.42e-10 2.27e-13  8.74e-09     1s
  36   5.11117130e+01  5.11112885e+01  1.37e-09 4.55e-13  4.21e-09     1s
  37   5.11116658e+01  5.11114304e+01  2.00e-09 4.55e-13  2.34e-09     1s
  38   5.11116536e+01  5.11114942e+01  2.81e-09 2.27e-13  1.58e-09     1s
  39   5.11116438e+01  5.11116175e+01  3.33e-09 1.18e-11  2.61e-10     1s
  40   5.11116270e+01  5.11116266e+01  1.51e-09 6.82e-13  3.51e-12     1s

Barrier solved model in 40 iterations and 1.43 seconds (1.33 work units)
Optimal objective 5.11116270e+01


Root relaxation: objective 5.111163e+01, 6920 iterations, 1.26 seconds (1.08 work units)

    Nodes    |    Current Node    |     Objective Bounds      |     Work
 Expl Unexpl |  Obj  Depth IntInf | Incumbent    BestBd   Gap | It/Node Time

     0     0   51.11163    0   17          -   51.11163      -     -    2s
H    0     0                      97.3675274   51.11163  47.5%     -    3s
H    0     0                      87.5769133   52.07074  40.5%     -    5s
     0     0   52.07074    0   14   87.57691   52.07074  40.5%     -    5s
H    0     0                      84.5680669   52.10331  38.4%     -    7s
     0     0   52.10331    0   14   84.56807   52.10331  38.4%     -    7s
     0     0   52.45308    0   13   84.56807   52.45308  38.0%     -    9s
     0     0   52.51178    0   14   84.56807   52.51178  37.9%     -   10s
     0     0   52.51600    0   14   84.56807   52.51600  37.9%     -   10s
     0     0   52.51653    0   14   84.56807   52.51653  37.9%     -   10s
     0     0   52.58349    0   14   84.56807   52.58349  37.8%     -   11s
     0     0   52.59775    0   12   84.56807   52.59775  37.8%     -   12s
     0     0   52.60120    0   12   84.56807   52.60120  37.8%     -   12s
     0     0   52.60120    0   12   84.56807   52.60120  37.8%     -   12s
     0     0   52.60916    0   11   84.56807   52.60916  37.8%     -   13s
     0     0   52.61185    0   11   84.56807   52.61185  37.8%     -   14s
     0     0   52.61190    0   12   84.56807   52.61190  37.8%     -   14s
H    0     0                      77.5527470   52.61190  32.2%     -   16s
     0     0   52.64005    0   12   77.55275   52.64005  32.1%     -   17s
H    0     0                      69.4107637   52.64005  24.2%     -   71s
     0     2   52.64005    0   12   69.41076   52.64005  24.2%     -   72s
     3     8   53.45150    2   15   69.41076   52.69735  24.1%  2546   75s
    31    58   53.80185    5   14   69.41076   53.72838  22.6%  2130   80s
    97   120   55.94211    7   13   69.41076   54.32030  21.7%  2036  104s
   133   144   56.19215    7   13   69.41076   55.51890  20.0%  1896  106s
   254   178     cutoff    9        69.41076   55.96986  19.4%  1535  121s
   297   196     cutoff    9        69.41076   55.97732  19.4%  1458  164s
   339   210   60.18513    9   11   69.41076   55.97732  19.4%  1420  166s
   457   240   69.35202   11   10   69.41076   55.97732  19.4%  1343  170s
   612   249   67.22914   10   11   69.41076   55.97732  19.4%  1229  175s
   755   266     cutoff    9        69.41076   57.63335  17.0%  1192  180s
  1014   307   67.76714   12    8   69.41076   57.63335  17.0%  1104  186s
  1255   304     cutoff   13        69.41076   58.15497  16.2%  1027  191s
  1484   312   65.08582    9   11   69.41076   59.63991  14.1%   998  196s
  1754   299     cutoff    9        69.41076   60.42781  12.9%   950  201s
  2090   279     cutoff   12        69.41076   61.81082  10.9%   890  206s
  2451   232     cutoff   12        69.41076   62.30654  10.2%   840  211s
  2900   214   65.19079    8   10   69.41076   63.43375  8.61%   778  339s
  3029   143   66.62251    9   10   69.41076   63.43375  8.61%   761  352s
  3193    47   66.84503    9   10   69.41076   63.43375  8.61%   741  366s
  3495     4   69.21497   11    9   69.41076   64.73654  6.73%   709  450s

Cutting planes:
  Implied bound: 203
  MIR: 1158
  Relax-and-lift: 170

Explored 3539 nodes (2512130 simplex iterations) in 450.98 seconds (871.67 work units)
Thread count was 36 (of 36 available processors)

Solution count 5: 69.4108 77.5527 84.5681 ... 97.3675

Optimal solution found (tolerance 1.00e-02)
Best objective 6.941076373437e+01, best bound 6.872795757001e+01, gap 0.9837%

Gurobi 9.5.0 (linux64) logging started Fri Dec  8 15:34:19 2023

Set parameter LogFile to value "/lustre1/scratch/348/vsc34888/JointResearch/05.Models/06.Benchmarking/E.Representative_days_based_on_Line_Benefits_OptModel/RTS24_mod1_ByStages_nc300/openStarNet_RTS24_mod1_ByStages_nc300.log"
Set parameter Method to value 2
Set parameter MIPFocus to value 1
Set parameter Presolve to value 2
Set parameter RINS to value 100
Set parameter MIPGap to value 0.01
Set parameter Threads to value 36
Set parameter TimeLimit to value 259200
Set parameter IterationLimit to value 760000000
No parameters matching 'relax_integrality' found
Gurobi Optimizer version 9.5.0 build v9.5.0rc5 (linux64)
Thread count: 36 physical cores, 36 logical processors, using up to 36 threads
Optimize a model with 106858 rows, 72143 columns and 266110 nonzeros
Model fingerprint: 0xe11da9ae
Coefficient statistics:
  Matrix range     [1e-03, 3e+02]
  Objective range  [1e+00, 1e+00]
  Bounds range     [3e-05, 3e+00]
  RHS range        [3e-05, 2e+01]
Presolve removed 89703 rows and 41493 columns
Presolve time: 0.12s
Presolved: 17155 rows, 31164 columns, 74515 nonzeros

Ordering time: 0.00s

Barrier statistics:
 AA' NZ     : 4.193e+04
 Factor NZ  : 1.493e+05 (roughly 17 MB of memory)
 Factor Ops : 1.886e+06 (less than 1 second per iteration)
 Threads    : 36

                  Objective                Residual
Iter       Primal          Dual         Primal    Dual     Compl     Time
   0   7.36750076e+06 -4.70243966e+07  5.60e+01 9.33e+01  1.86e+04     0s
   1   4.28369474e+05 -4.01413977e+07  2.94e+00 2.86e+01  1.60e+03     0s
   2   6.43455585e+04 -8.71262194e+06  3.55e-01 3.10e-01  2.20e+02     0s
   3   3.06049792e+04 -1.86938731e+06  6.74e-02 1.64e-12  4.04e+01     0s
   4   1.90820520e+04 -4.23236354e+05  5.43e-03 1.59e-12  8.23e+00     0s
   5   1.10180367e+04 -9.06207921e+04  9.67e-05 8.09e-12  1.85e+00     0s
   6   3.07548524e+03 -1.76780809e+04  1.39e-05 1.04e-12  3.79e-01     0s
   7   7.14133759e+02 -3.94948089e+03  1.37e-06 4.55e-13  8.51e-02     0s
   8   3.41665936e+02 -1.16796836e+03  1.51e-07 4.55e-13  2.75e-02     0s
   9   1.97960233e+02 -3.56950392e+02  3.87e-08 4.55e-13  1.01e-02     0s
  10   1.37788291e+02 -9.75425995e+01  1.86e-08 3.41e-13  4.29e-03     0s
  11   9.04986362e+01  1.29579790e+01  4.44e-09 4.55e-13  1.41e-03     0s
  12   7.54938339e+01  6.01798954e+01  1.09e-09 4.55e-13  2.79e-04     0s
  13   7.09952813e+01  6.68059184e+01  2.61e-10 4.55e-13  7.64e-05     0s
  14   7.00380550e+01  6.83474517e+01  1.36e-10 6.82e-13  3.08e-05     0s
  15   6.96369226e+01  6.90231178e+01  7.26e-11 4.55e-13  1.12e-05     0s
  16   6.94864956e+01  6.92562675e+01  9.04e-11 6.82e-13  4.20e-06     0s
  17   6.94307312e+01  6.93825574e+01  7.41e-11 4.55e-13  8.78e-07     0s
  18   6.94114561e+01  6.94097578e+01  5.75e-10 4.55e-13  3.10e-08     0s
  19   6.94107682e+01  6.94107580e+01  3.82e-10 6.82e-13  1.86e-10     0s
  20   6.94107637e+01  6.94107637e+01  2.87e-10 4.55e-13  1.86e-13     0s
  21   6.94107637e+01  6.94107637e+01  3.60e-13 4.55e-13  5.56e-18     0s

Barrier solved model in 21 iterations and 0.33 seconds (0.33 work units)
Optimal objective 6.94107637e+01

Crossover log...

    3949 DPushes remaining with DInf 0.0000000e+00                 0s
       0 DPushes remaining with DInf 0.0000000e+00                 0s

    1053 PPushes remaining with PInf 0.0000000e+00                 0s
       0 PPushes remaining with PInf 0.0000000e+00                 0s

  Push phase complete: Pinf 0.0000000e+00, Dinf 2.0648140e-13      0s

Iteration    Objective       Primal Inf.    Dual Inf.      Time
    1173    6.9410764e+01   0.000000e+00   0.000000e+00      0s

Use crossover to convert LP symmetric solution to basic solution...
Crossover log...

       0 DPushes remaining with DInf 0.0000000e+00                 0s

     834 PPushes remaining with PInf 0.0000000e+00                 0s
       0 PPushes remaining with PInf 0.0000000e+00                 0s

  Push phase complete: Pinf 0.0000000e+00, Dinf 1.4602570e-13      0s

Iteration    Objective       Primal Inf.    Dual Inf.      Time
    2107    6.9410764e+01   0.000000e+00   0.000000e+00      1s

Solved in 2107 iterations and 0.51 seconds (0.44 work units)
Optimal objective  6.941076373e+01
